(set-info :source |printed by MathSAT|)
(declare-fun call__DRAGON_.ite31 () Int)
(declare-fun call__DRAGON_.ite19 () Int)
(declare-fun call__DRAGON_.ite38 () Int)
(declare-fun call__DRAGON_.ite49 () Int)
(declare-fun env () Bool)
(declare-fun call__DRAGON_.ite23 () Int)
(declare-fun call__DRAGON_.g05 () Bool)
(declare-fun call__DRAGON_.g02 () Bool)
(declare-fun shared_dirty () Int)
(declare-fun call__DRAGON_.ite17 () Int)
(declare-fun call_Sofar.Sofar () Bool)
(declare-fun call__DRAGON_.ite9 () Int)
(declare-fun param_e04 () Bool)
(declare-fun call__DRAGON_.ite32 () Int)
(declare-fun call__DRAGON_.flby () Int)
(declare-fun call__DRAGON_.ite36 () Int)
(declare-fun call__DRAGON_.ite13 () Int)
(declare-fun call__DRAGON_.ite39 () Int)
(declare-fun call__DRAGON_.ite60 () Int)
(declare-fun call__DRAGON_.ite42 () Int)
(declare-fun call__DRAGON_.g04 () Bool)
(declare-fun call__DRAGON_.dirty () Int)
(declare-fun call__DRAGON_.ite29 () Int)
(declare-fun call__DRAGON_.ite52 () Int)
(declare-fun param_e09 () Bool)
(declare-fun call__DRAGON_.ite6 () Int)
(declare-fun call__DRAGON_.ite24 () Int)
(declare-fun call__DRAGON_.ite53 () Int)
(declare-fun shared () Int)
(declare-fun erreur () Bool)
(declare-fun param_e01 () Bool)
(declare-fun call__DRAGON_.ite57 () Int)
(declare-fun call__DRAGON_.g06 () Bool)
(declare-fun call__DRAGON_.ite33 () Int)
(declare-fun call__DRAGON_.invalid () Int)
(declare-fun call__DRAGON_.ite20 () Int)
(declare-fun call__DRAGON_.shared_dirty () Int)
(declare-fun call_Sofar.flby () Bool)
(declare-fun call__DRAGON_.ite7 () Int)
(declare-fun call__DRAGON_.flby6 () Int)
(declare-fun call__DRAGON_.ite54 () Int)
(declare-fun call__DRAGON_.ite48 () Int)
(declare-fun call__DRAGON_.ite34 () Int)
(declare-fun call__DRAGON_.ite18 () Int)
(declare-fun call__DRAGON_.ite2 () Int)
(declare-fun call__DRAGON_.ite58 () Int)
(declare-fun param_e08 () Bool)
(declare-fun call__DRAGON_.ite56 () Int)
(declare-fun call__DRAGON_.ite26 () Int)
(declare-fun call__DRAGON_.ite45 () Int)
(declare-fun param_e05 () Bool)
(declare-fun call__DRAGON_.ite15 () Int)
(declare-fun call__DRAGON_.ite30 () Int)
(declare-fun call__DRAGON_.mem_init () Int)
(declare-fun param_e06 () Bool)
(declare-fun call__DRAGON_.ite12 () Int)
(declare-fun call__DRAGON_.g08 () Bool)
(declare-fun call__DRAGON_.flby3 () Int)
(declare-fun call__DRAGON_.ite55 () Int)
(declare-fun call__DRAGON_.ite40 () Int)
(declare-fun call__DRAGON_.ite35 () Int)
(declare-fun call__DRAGON_.ite4 () Int)
(declare-fun call__DRAGON_.ite8 () Int)
(declare-fun call__DRAGON_.ite14 () Int)
(declare-fun invalid () Int)
(declare-fun call__DRAGON_.ite41 () Int)
(declare-fun exclusive () Int)
(declare-fun call__DRAGON_.flby2 () Int)
(declare-fun call__DRAGON_.ite59 () Int)
(declare-fun call__DRAGON_.ite11 () Int)
(declare-fun param_e03 () Bool)
(declare-fun call__DRAGON_.ite22 () Int)
(declare-fun call__DRAGON_.exclusive () Int)
(declare-fun param_e11 () Bool)
(declare-fun call__DRAGON_.ite27 () Int)
(declare-fun call__DRAGON_.ite44 () Int)
(declare-fun _OK_ () Bool)
(declare-fun param_e12 () Bool)
(declare-fun call__DRAGON_.ite5 () Int)
(declare-fun call__DRAGON_.ite46 () Int)
(declare-fun call__DRAGON_.ite28 () Int)
(declare-fun param_init_invalid () Int)
(declare-fun call__DRAGON_.flby5 () Int)
(declare-fun flby () Bool)
(declare-fun call__DRAGON_.ite37 () Int)
(declare-fun call__DRAGON_.ite10 () Int)
(declare-fun call__DRAGON_.ite () Bool)
(declare-fun call__DRAGON_.ite61 () Int)
(declare-fun call__DRAGON_.ite25 () Int)
(declare-fun call__DRAGON_.ite16 () Int)
(declare-fun call__DRAGON_.ite21 () Int)
(declare-fun dirty () Int)
(declare-fun call__DRAGON_.ite47 () Int)
(declare-fun call__DRAGON_.ite43 () Int)
(declare-fun call__DRAGON_.ite3 () Int)
(declare-fun param_e07 () Bool)
(declare-fun call__DRAGON_.shared () Int)
(declare-fun call__DRAGON_.ite51 () Int)
(declare-fun param_e10 () Bool)
(declare-fun call__DRAGON_.erreur () Bool)
(declare-fun call__DRAGON_.flby4 () Int)
(declare-fun param_e02 () Bool)
(declare-fun call__DRAGON_.ite50 () Int)
(declare-fun call_excludes12.excludes () Bool)
(define-fun .def_1745 () Bool (= call_Sofar.flby call_Sofar.Sofar))
(define-fun .def_1554 () Bool (not param_e02))
(define-fun .def_1535 () Bool (not param_e01))
(define-fun .def_1643 () Bool (and .def_1535 .def_1554))
(define-fun .def_1594 () Bool (not param_e03))
(define-fun .def_1644 () Bool (and .def_1594 .def_1643))
(define-fun .def_1610 () Bool (not param_e04))
(define-fun .def_1645 () Bool (and .def_1610 .def_1644))
(define-fun .def_1404 () Bool (not param_e05))
(define-fun .def_1646 () Bool (and .def_1404 .def_1645))
(define-fun .def_1388 () Bool (not param_e06))
(define-fun .def_1647 () Bool (and .def_1388 .def_1646))
(define-fun .def_1424 () Bool (not param_e07))
(define-fun .def_1648 () Bool (and .def_1424 .def_1647))
(define-fun .def_1442 () Bool (not param_e08))
(define-fun .def_1649 () Bool (and .def_1442 .def_1648))
(define-fun .def_1282 () Bool (not param_e09))
(define-fun .def_1650 () Bool (and .def_1282 .def_1649))
(define-fun .def_1288 () Bool (not param_e10))
(define-fun .def_1651 () Bool (and .def_1288 .def_1650))
(define-fun .def_1297 () Bool (not param_e11))
(define-fun .def_1652 () Bool (and .def_1297 .def_1651))
(define-fun .def_1304 () Bool (not param_e12))
(define-fun .def_1730 () Bool (and .def_1304 .def_1652))
(define-fun .def_1719 () Bool (and param_e01 .def_1554))
(define-fun .def_1720 () Bool (and .def_1594 .def_1719))
(define-fun .def_1721 () Bool (and .def_1610 .def_1720))
(define-fun .def_1722 () Bool (and .def_1404 .def_1721))
(define-fun .def_1723 () Bool (and .def_1388 .def_1722))
(define-fun .def_1724 () Bool (and .def_1424 .def_1723))
(define-fun .def_1725 () Bool (and .def_1442 .def_1724))
(define-fun .def_1726 () Bool (and .def_1282 .def_1725))
(define-fun .def_1727 () Bool (and .def_1288 .def_1726))
(define-fun .def_1728 () Bool (and .def_1297 .def_1727))
(define-fun .def_1729 () Bool (and .def_1304 .def_1728))
(define-fun .def_1731 () Bool (or .def_1729 .def_1730))
(define-fun .def_1708 () Bool (and .def_1535 param_e02))
(define-fun .def_1709 () Bool (and .def_1594 .def_1708))
(define-fun .def_1710 () Bool (and .def_1610 .def_1709))
(define-fun .def_1711 () Bool (and .def_1404 .def_1710))
(define-fun .def_1712 () Bool (and .def_1388 .def_1711))
(define-fun .def_1713 () Bool (and .def_1424 .def_1712))
(define-fun .def_1714 () Bool (and .def_1442 .def_1713))
(define-fun .def_1715 () Bool (and .def_1282 .def_1714))
(define-fun .def_1716 () Bool (and .def_1288 .def_1715))
(define-fun .def_1717 () Bool (and .def_1297 .def_1716))
(define-fun .def_1718 () Bool (and .def_1304 .def_1717))
(define-fun .def_1732 () Bool (or .def_1718 .def_1731))
(define-fun .def_1698 () Bool (and param_e03 .def_1643))
(define-fun .def_1699 () Bool (and .def_1610 .def_1698))
(define-fun .def_1700 () Bool (and .def_1404 .def_1699))
(define-fun .def_1701 () Bool (and .def_1388 .def_1700))
(define-fun .def_1702 () Bool (and .def_1424 .def_1701))
(define-fun .def_1703 () Bool (and .def_1442 .def_1702))
(define-fun .def_1704 () Bool (and .def_1282 .def_1703))
(define-fun .def_1705 () Bool (and .def_1288 .def_1704))
(define-fun .def_1706 () Bool (and .def_1297 .def_1705))
(define-fun .def_1707 () Bool (and .def_1304 .def_1706))
(define-fun .def_1733 () Bool (or .def_1707 .def_1732))
(define-fun .def_1689 () Bool (and param_e04 .def_1644))
(define-fun .def_1690 () Bool (and .def_1404 .def_1689))
(define-fun .def_1691 () Bool (and .def_1388 .def_1690))
(define-fun .def_1692 () Bool (and .def_1424 .def_1691))
(define-fun .def_1693 () Bool (and .def_1442 .def_1692))
(define-fun .def_1694 () Bool (and .def_1282 .def_1693))
(define-fun .def_1695 () Bool (and .def_1288 .def_1694))
(define-fun .def_1696 () Bool (and .def_1297 .def_1695))
(define-fun .def_1697 () Bool (and .def_1304 .def_1696))
(define-fun .def_1734 () Bool (or .def_1697 .def_1733))
(define-fun .def_1681 () Bool (and param_e05 .def_1645))
(define-fun .def_1682 () Bool (and .def_1388 .def_1681))
(define-fun .def_1683 () Bool (and .def_1424 .def_1682))
(define-fun .def_1684 () Bool (and .def_1442 .def_1683))
(define-fun .def_1685 () Bool (and .def_1282 .def_1684))
(define-fun .def_1686 () Bool (and .def_1288 .def_1685))
(define-fun .def_1687 () Bool (and .def_1297 .def_1686))
(define-fun .def_1688 () Bool (and .def_1304 .def_1687))
(define-fun .def_1735 () Bool (or .def_1688 .def_1734))
(define-fun .def_1674 () Bool (and param_e06 .def_1646))
(define-fun .def_1675 () Bool (and .def_1424 .def_1674))
(define-fun .def_1676 () Bool (and .def_1442 .def_1675))
(define-fun .def_1677 () Bool (and .def_1282 .def_1676))
(define-fun .def_1678 () Bool (and .def_1288 .def_1677))
(define-fun .def_1679 () Bool (and .def_1297 .def_1678))
(define-fun .def_1680 () Bool (and .def_1304 .def_1679))
(define-fun .def_1736 () Bool (or .def_1680 .def_1735))
(define-fun .def_1668 () Bool (and param_e07 .def_1647))
(define-fun .def_1669 () Bool (and .def_1442 .def_1668))
(define-fun .def_1670 () Bool (and .def_1282 .def_1669))
(define-fun .def_1671 () Bool (and .def_1288 .def_1670))
(define-fun .def_1672 () Bool (and .def_1297 .def_1671))
(define-fun .def_1673 () Bool (and .def_1304 .def_1672))
(define-fun .def_1737 () Bool (or .def_1673 .def_1736))
(define-fun .def_1663 () Bool (and param_e08 .def_1648))
(define-fun .def_1664 () Bool (and .def_1282 .def_1663))
(define-fun .def_1665 () Bool (and .def_1288 .def_1664))
(define-fun .def_1666 () Bool (and .def_1297 .def_1665))
(define-fun .def_1667 () Bool (and .def_1304 .def_1666))
(define-fun .def_1738 () Bool (or .def_1667 .def_1737))
(define-fun .def_1659 () Bool (and param_e09 .def_1649))
(define-fun .def_1660 () Bool (and .def_1288 .def_1659))
(define-fun .def_1661 () Bool (and .def_1297 .def_1660))
(define-fun .def_1662 () Bool (and .def_1304 .def_1661))
(define-fun .def_1739 () Bool (or .def_1662 .def_1738))
(define-fun .def_1656 () Bool (and param_e10 .def_1650))
(define-fun .def_1657 () Bool (and .def_1297 .def_1656))
(define-fun .def_1658 () Bool (and .def_1304 .def_1657))
(define-fun .def_1740 () Bool (or .def_1658 .def_1739))
(define-fun .def_1654 () Bool (and param_e11 .def_1651))
(define-fun .def_1655 () Bool (and .def_1304 .def_1654))
(define-fun .def_1741 () Bool (or .def_1655 .def_1740))
(define-fun .def_1653 () Bool (and param_e12 .def_1652))
(define-fun .def_1742 () Bool (or .def_1653 .def_1741))
(define-fun .def_1743 () Bool (= call_excludes12.excludes .def_1742))
(define-fun .def_1641 () Bool (= call__DRAGON_.mem_init call__DRAGON_.flby))
(define-fun .def_1639 () Bool (= call__DRAGON_.erreur call__DRAGON_.ite))
(define-fun .def_1637 () Bool (= call__DRAGON_.flby6 call__DRAGON_.invalid))
(define-fun .def_1635 () Bool (= call__DRAGON_.flby5 call__DRAGON_.dirty))
(define-fun .def_1633 () Bool (= call__DRAGON_.flby4 call__DRAGON_.shared_dirty))
(define-fun .def_1631 () Bool (= call__DRAGON_.flby3 call__DRAGON_.shared))
(define-fun .def_1628 () Bool (= call__DRAGON_.flby2 call__DRAGON_.exclusive))
(define-fun .def_1623 () Bool (<= 2 call__DRAGON_.exclusive))
(define-fun .def_1625 () Bool (not .def_1623))
(define-fun .def_1626 () Bool (or call__DRAGON_.ite .def_1625))
(define-fun .def_1622 () Bool (not call__DRAGON_.ite))
(define-fun .def_1624 () Bool (or .def_1622 .def_1623))
(define-fun .def_1627 () Bool (and .def_1624 .def_1626))
(define-fun .def_1629 () Bool (and .def_1627 .def_1628))
(define-fun .def_1617 () Bool (= call__DRAGON_.ite42 call__DRAGON_.ite43))
(define-fun .def_1618 () Bool (or param_e04 .def_1617))
(define-fun .def_1614 () Bool (= call__DRAGON_.ite43 call__DRAGON_.ite34))
(define-fun .def_1615 () Bool (or .def_1610 .def_1614))
(define-fun .def_1609 () Bool (= call__DRAGON_.ite23 call__DRAGON_.ite30))
(define-fun .def_1611 () Bool (or .def_1609 .def_1610))
(define-fun .def_1606 () Bool (= call__DRAGON_.ite29 call__DRAGON_.ite30))
(define-fun .def_1608 () Bool (or .def_1606 param_e04))
(define-fun .def_1612 () Bool (and .def_1608 .def_1611))
(define-fun .def_1616 () Bool (and .def_1612 .def_1615))
(define-fun .def_1619 () Bool (and .def_1616 .def_1618))
(define-fun .def_1602 () Bool (= call__DRAGON_.ite44 call__DRAGON_.ite43))
(define-fun .def_1603 () Bool (or param_e03 .def_1602))
(define-fun .def_1598 () Bool (= call__DRAGON_.ite44 call__DRAGON_.ite33))
(define-fun .def_1599 () Bool (or .def_1594 .def_1598))
(define-fun .def_1593 () Bool (= call__DRAGON_.ite9 call__DRAGON_.ite4))
(define-fun .def_1595 () Bool (or .def_1593 .def_1594))
(define-fun .def_1589 () Bool (= call__DRAGON_.ite8 call__DRAGON_.ite9))
(define-fun .def_1591 () Bool (or .def_1589 param_e03))
(define-fun .def_1596 () Bool (and .def_1591 .def_1595))
(define-fun .def_1600 () Bool (and .def_1596 .def_1599))
(define-fun .def_1604 () Bool (and .def_1600 .def_1603))
(define-fun .def_1585 () Bool (= call__DRAGON_.ite31 call__DRAGON_.ite30))
(define-fun .def_1586 () Bool (or param_e02 .def_1585))
(define-fun .def_1581 () Bool (= call__DRAGON_.ite22 call__DRAGON_.ite31))
(define-fun .def_1582 () Bool (or .def_1554 .def_1581))
(define-fun .def_1576 () Bool (= call__DRAGON_.ite20 call__DRAGON_.ite21))
(define-fun .def_1577 () Bool (or param_e02 .def_1576))
(define-fun .def_1573 () Bool (= call__DRAGON_.ite12 call__DRAGON_.ite21))
(define-fun .def_1574 () Bool (or .def_1554 .def_1573))
(define-fun .def_1568 () Bool (= call__DRAGON_.ite10 call__DRAGON_.ite9))
(define-fun .def_1569 () Bool (or param_e02 .def_1568))
(define-fun .def_1564 () Bool (= call__DRAGON_.ite3 call__DRAGON_.ite10))
(define-fun .def_1565 () Bool (or .def_1554 .def_1564))
(define-fun .def_1561 () Bool (= call__DRAGON_.ite59 call__DRAGON_.ite60))
(define-fun .def_1562 () Bool (or param_e02 .def_1561))
(define-fun .def_1558 () Bool (= call__DRAGON_.ite60 call__DRAGON_.ite47))
(define-fun .def_1559 () Bool (or .def_1554 .def_1558))
(define-fun .def_1553 () Bool (= call__DRAGON_.ite32 call__DRAGON_.ite45))
(define-fun .def_1555 () Bool (or .def_1553 .def_1554))
(define-fun .def_1550 () Bool (= call__DRAGON_.ite45 call__DRAGON_.ite44))
(define-fun .def_1552 () Bool (or .def_1550 param_e02))
(define-fun .def_1556 () Bool (and .def_1552 .def_1555))
(define-fun .def_1560 () Bool (and .def_1556 .def_1559))
(define-fun .def_1563 () Bool (and .def_1560 .def_1562))
(define-fun .def_1566 () Bool (and .def_1563 .def_1565))
(define-fun .def_1570 () Bool (and .def_1566 .def_1569))
(define-fun .def_1575 () Bool (and .def_1570 .def_1574))
(define-fun .def_1578 () Bool (and .def_1575 .def_1577))
(define-fun .def_1583 () Bool (and .def_1578 .def_1582))
(define-fun .def_1587 () Bool (and .def_1583 .def_1586))
(define-fun .def_1544 () Bool (= call__DRAGON_.ite11 call__DRAGON_.ite10))
(define-fun .def_1545 () Bool (or param_e01 .def_1544))
(define-fun .def_1540 () Bool (= call__DRAGON_.ite2 call__DRAGON_.ite11))
(define-fun .def_1541 () Bool (or .def_1535 .def_1540))
(define-fun .def_1534 () Bool (= call__DRAGON_.ite61 call__DRAGON_.ite46))
(define-fun .def_1536 () Bool (or .def_1534 .def_1535))
(define-fun .def_1530 () Bool (= call__DRAGON_.ite61 call__DRAGON_.ite60))
(define-fun .def_1532 () Bool (or .def_1530 param_e01))
(define-fun .def_1537 () Bool (and .def_1532 .def_1536))
(define-fun .def_1542 () Bool (and .def_1537 .def_1541))
(define-fun .def_1546 () Bool (and .def_1542 .def_1545))
(define-fun .def_1524 () Bool (= call__DRAGON_.ite55 call__DRAGON_.ite52))
(define-fun .def_1525 () Bool (or .def_1297 .def_1524))
(define-fun .def_1521 () Bool (= call__DRAGON_.ite54 call__DRAGON_.ite55))
(define-fun .def_1522 () Bool (or param_e11 .def_1521))
(define-fun .def_1526 () Bool (and .def_1522 .def_1525))
(define-fun .def_1517 () Bool (= call__DRAGON_.ite56 call__DRAGON_.ite51))
(define-fun .def_1518 () Bool (or .def_1288 .def_1517))
(define-fun .def_1514 () Bool (= call__DRAGON_.ite56 call__DRAGON_.ite55))
(define-fun .def_1515 () Bool (or param_e10 .def_1514))
(define-fun .def_1519 () Bool (and .def_1515 .def_1518))
(define-fun .def_1509 () Bool (= call__DRAGON_.ite57 call__DRAGON_.ite50))
(define-fun .def_1510 () Bool (or .def_1282 .def_1509))
(define-fun .def_1506 () Bool (= call__DRAGON_.ite57 call__DRAGON_.ite56))
(define-fun .def_1507 () Bool (or param_e09 .def_1506))
(define-fun .def_1511 () Bool (and .def_1507 .def_1510))
(define-fun .def_1503 () Bool (= env call_Sofar.Sofar))
(define-fun .def_1500 () Bool (= erreur call__DRAGON_.erreur))
(define-fun .def_1496 () Bool (= invalid call__DRAGON_.invalid))
(define-fun .def_1492 () Bool (= dirty call__DRAGON_.dirty))
(define-fun .def_1488 () Bool (= shared_dirty call__DRAGON_.shared_dirty))
(define-fun .def_1484 () Bool (= shared call__DRAGON_.shared))
(define-fun .def_1480 () Bool (= exclusive call__DRAGON_.exclusive))
(define-fun .def_1474 () Bool (not env))
(define-fun .def_1475 () Bool (or flby .def_1474))
(define-fun .def_1476 () Bool (= _OK_ .def_1475))
(define-fun .def_1468 () Bool (= call__DRAGON_.ite39 call__DRAGON_.ite40))
(define-fun .def_1469 () Bool (or param_e08 .def_1468))
(define-fun .def_1465 () Bool (= call__DRAGON_.ite37 call__DRAGON_.ite40))
(define-fun .def_1466 () Bool (or .def_1442 .def_1465))
(define-fun .def_1462 () Bool (= call__DRAGON_.ite27 call__DRAGON_.ite28))
(define-fun .def_1463 () Bool (or param_e08 .def_1462))
(define-fun .def_1459 () Bool (= call__DRAGON_.ite25 call__DRAGON_.ite28))
(define-fun .def_1460 () Bool (or .def_1442 .def_1459))
(define-fun .def_1456 () Bool (= call__DRAGON_.ite17 call__DRAGON_.ite18))
(define-fun .def_1457 () Bool (or param_e08 .def_1456))
(define-fun .def_1453 () Bool (= call__DRAGON_.ite18 call__DRAGON_.ite15))
(define-fun .def_1454 () Bool (or .def_1442 .def_1453))
(define-fun .def_1449 () Bool (= call__DRAGON_.ite7 call__DRAGON_.ite8))
(define-fun .def_1450 () Bool (or param_e08 .def_1449))
(define-fun .def_1446 () Bool (= call__DRAGON_.ite5 call__DRAGON_.ite8))
(define-fun .def_1447 () Bool (or .def_1442 .def_1446))
(define-fun .def_1441 () Bool (= call__DRAGON_.ite58 call__DRAGON_.ite49))
(define-fun .def_1443 () Bool (or .def_1441 .def_1442))
(define-fun .def_1437 () Bool (= call__DRAGON_.ite58 call__DRAGON_.ite57))
(define-fun .def_1439 () Bool (or .def_1437 param_e08))
(define-fun .def_1444 () Bool (and .def_1439 .def_1443))
(define-fun .def_1448 () Bool (and .def_1444 .def_1447))
(define-fun .def_1451 () Bool (and .def_1448 .def_1450))
(define-fun .def_1455 () Bool (and .def_1451 .def_1454))
(define-fun .def_1458 () Bool (and .def_1455 .def_1457))
(define-fun .def_1461 () Bool (and .def_1458 .def_1460))
(define-fun .def_1464 () Bool (and .def_1461 .def_1463))
(define-fun .def_1467 () Bool (and .def_1464 .def_1466))
(define-fun .def_1470 () Bool (and .def_1467 .def_1469))
(define-fun .def_1432 () Bool (= call__DRAGON_.ite41 call__DRAGON_.ite40))
(define-fun .def_1433 () Bool (or param_e07 .def_1432))
(define-fun .def_1428 () Bool (= call__DRAGON_.ite41 call__DRAGON_.ite36))
(define-fun .def_1429 () Bool (or .def_1424 .def_1428))
(define-fun .def_1423 () Bool (= call__DRAGON_.ite59 call__DRAGON_.ite48))
(define-fun .def_1425 () Bool (or .def_1423 .def_1424))
(define-fun .def_1419 () Bool (= call__DRAGON_.ite58 call__DRAGON_.ite59))
(define-fun .def_1421 () Bool (or .def_1419 param_e07))
(define-fun .def_1426 () Bool (and .def_1421 .def_1425))
(define-fun .def_1430 () Bool (and .def_1426 .def_1429))
(define-fun .def_1434 () Bool (and .def_1430 .def_1433))
(define-fun .def_1413 () Bool (= call__DRAGON_.ite42 call__DRAGON_.ite41))
(define-fun .def_1414 () Bool (or param_e05 .def_1413))
(define-fun .def_1409 () Bool (= call__DRAGON_.ite35 call__DRAGON_.ite42))
(define-fun .def_1410 () Bool (or .def_1404 .def_1409))
(define-fun .def_1403 () Bool (= call__DRAGON_.ite13 call__DRAGON_.ite20))
(define-fun .def_1405 () Bool (or .def_1403 .def_1404))
(define-fun .def_1400 () Bool (= call__DRAGON_.ite19 call__DRAGON_.ite20))
(define-fun .def_1402 () Bool (or .def_1400 param_e05))
(define-fun .def_1406 () Bool (and .def_1402 .def_1405))
(define-fun .def_1411 () Bool (and .def_1406 .def_1410))
(define-fun .def_1415 () Bool (and .def_1411 .def_1414))
(define-fun .def_1396 () Bool (= call__DRAGON_.ite29 call__DRAGON_.ite28))
(define-fun .def_1397 () Bool (or param_e06 .def_1396))
(define-fun .def_1392 () Bool (= call__DRAGON_.ite24 call__DRAGON_.ite29))
(define-fun .def_1393 () Bool (or .def_1388 .def_1392))
(define-fun .def_1387 () Bool (= call__DRAGON_.ite19 call__DRAGON_.ite14))
(define-fun .def_1389 () Bool (or .def_1387 .def_1388))
(define-fun .def_1383 () Bool (= call__DRAGON_.ite19 call__DRAGON_.ite18))
(define-fun .def_1385 () Bool (or .def_1383 param_e06))
(define-fun .def_1390 () Bool (and .def_1385 .def_1389))
(define-fun .def_1394 () Bool (and .def_1390 .def_1393))
(define-fun .def_1398 () Bool (and .def_1394 .def_1397))
(define-fun .def_1416 () Bool (and .def_1398 .def_1415))
(define-fun .def_1435 () Bool (and .def_1416 .def_1434))
(define-fun .def_1471 () Bool (and .def_1435 .def_1470))
(define-fun .def_1477 () Bool (and .def_1471 .def_1476))
(define-fun .def_1481 () Bool (and .def_1477 .def_1480))
(define-fun .def_1485 () Bool (and .def_1481 .def_1484))
(define-fun .def_1489 () Bool (and .def_1485 .def_1488))
(define-fun .def_1493 () Bool (and .def_1489 .def_1492))
(define-fun .def_1497 () Bool (and .def_1493 .def_1496))
(define-fun .def_1501 () Bool (and .def_1497 .def_1500))
(define-fun .def_1504 () Bool (and .def_1501 .def_1503))
(define-fun .def_1512 () Bool (and .def_1504 .def_1511))
(define-fun .def_1520 () Bool (and .def_1512 .def_1519))
(define-fun .def_1527 () Bool (and .def_1520 .def_1526))
(define-fun .def_1547 () Bool (and .def_1527 .def_1546))
(define-fun .def_1588 () Bool (and .def_1547 .def_1587))
(define-fun .def_1605 () Bool (and .def_1588 .def_1604))
(define-fun .def_1620 () Bool (and .def_1605 .def_1619))
(define-fun .def_1630 () Bool (and .def_1620 .def_1629))
(define-fun .def_1632 () Bool (and .def_1630 .def_1631))
(define-fun .def_1634 () Bool (and .def_1632 .def_1633))
(define-fun .def_1636 () Bool (and .def_1634 .def_1635))
(define-fun .def_1638 () Bool (and .def_1636 .def_1637))
(define-fun .def_1640 () Bool (and .def_1638 .def_1639))
(define-fun .def_1642 () Bool (and .def_1640 .def_1641))
(define-fun .def_1744 () Bool (and .def_1642 .def_1743))
(define-fun .def_1746 () Bool (and .def_1744 .def_1745))
(define-fun .def_1374 () Bool (<= param_init_invalid 0))
(define-fun .def_1375 () Bool (not .def_1374))
(define-fun .def_1377 () Bool (and .def_1375 call_excludes12.excludes))
(define-fun .def_1379 () Bool (= .def_1377 call_Sofar.flby))
(define-fun .def_1372 () Bool (= call__DRAGON_.flby4 0))
(define-fun .def_1369 () Bool (= call__DRAGON_.flby3 0))
(define-fun .def_1366 () Bool (= call__DRAGON_.flby2 0))
(define-fun .def_1363 () Bool (= param_init_invalid call__DRAGON_.flby))
(define-fun .def_1357 () Bool (= call__DRAGON_.ite37 0))
(define-fun .def_1350 () Bool (not call__DRAGON_.g08))
(define-fun .def_1358 () Bool (or .def_1350 .def_1357))
(define-fun .def_1353 () Bool (= call__DRAGON_.ite5 0))
(define-fun .def_1354 () Bool (or .def_1350 .def_1353))
(define-fun .def_1348 () Bool (= call__DRAGON_.ite25 1))
(define-fun .def_1351 () Bool (or .def_1348 .def_1350))
(define-fun .def_1355 () Bool (and .def_1351 .def_1354))
(define-fun .def_1359 () Bool (and .def_1355 .def_1358))
(define-fun .def_1344 () Bool (= call__DRAGON_.ite24 1))
(define-fun .def_1342 () Bool (not call__DRAGON_.g06))
(define-fun .def_1345 () Bool (or .def_1342 .def_1344))
(define-fun .def_1338 () Bool (= call__DRAGON_.ite13 0))
(define-fun .def_1336 () Bool (not call__DRAGON_.g05))
(define-fun .def_1339 () Bool (or .def_1336 .def_1338))
(define-fun .def_1332 () Bool (= call__DRAGON_.ite23 0))
(define-fun .def_1330 () Bool (not call__DRAGON_.g04))
(define-fun .def_1333 () Bool (or .def_1330 .def_1332))
(define-fun .def_1325 () Bool (= call__DRAGON_.ite3 0))
(define-fun .def_1322 () Bool (not call__DRAGON_.g02))
(define-fun .def_1326 () Bool (or .def_1322 .def_1325))
(define-fun .def_1320 () Bool (= call__DRAGON_.ite32 0))
(define-fun .def_1323 () Bool (or .def_1320 .def_1322))
(define-fun .def_1327 () Bool (and .def_1323 .def_1326))
(define-fun .def_1317 () Bool (= call__DRAGON_.flby6 call__DRAGON_.mem_init))
(define-fun .def_1313 () Bool (= call__DRAGON_.flby5 0))
(define-fun .def_1308 () Bool (= call__DRAGON_.ite53 call__DRAGON_.ite54))
(define-fun .def_1309 () Bool (or .def_1304 .def_1308))
(define-fun .def_1302 () Bool (= call__DRAGON_.ite6 call__DRAGON_.ite7))
(define-fun .def_1305 () Bool (or .def_1302 .def_1304))
(define-fun .def_1310 () Bool (and .def_1305 .def_1309))
(define-fun .def_1295 () Bool (= call__DRAGON_.ite26 call__DRAGON_.ite27))
(define-fun .def_1298 () Bool (or .def_1295 .def_1297))
(define-fun .def_1286 () Bool (= call__DRAGON_.ite16 call__DRAGON_.ite17))
(define-fun .def_1289 () Bool (or .def_1286 .def_1288))
(define-fun .def_1280 () Bool (= call__DRAGON_.ite38 call__DRAGON_.ite39))
(define-fun .def_1283 () Bool (or .def_1280 .def_1282))
(define-fun .def_1290 () Bool (and .def_1283 .def_1289))
(define-fun .def_1292 () Bool (and .def_1290 flby))
(define-fun .def_1299 () Bool (and .def_1292 .def_1298))
(define-fun .def_1311 () Bool (and .def_1299 .def_1310))
(define-fun .def_1314 () Bool (and .def_1311 .def_1313))
(define-fun .def_1318 () Bool (and .def_1314 .def_1317))
(define-fun .def_1328 () Bool (and .def_1318 .def_1327))
(define-fun .def_1334 () Bool (and .def_1328 .def_1333))
(define-fun .def_1340 () Bool (and .def_1334 .def_1339))
(define-fun .def_1346 () Bool (and .def_1340 .def_1345))
(define-fun .def_1360 () Bool (and .def_1346 .def_1359))
(define-fun .def_1364 () Bool (and .def_1360 .def_1363))
(define-fun .def_1367 () Bool (and .def_1364 .def_1366))
(define-fun .def_1370 () Bool (and .def_1367 .def_1369))
(define-fun .def_1373 () Bool (and .def_1370 .def_1372))
(define-fun .def_1380 () Bool (and .def_1373 .def_1379))
(define-fun .def_1747 () Bool (and .def_1380 .def_1746))
(assert .def_1747)
